db/data/2955426515280642019314386302672036318342.z3.out
-------------------
2500.198559662
